h 48 18 0
h -3 2 0
h 3 -1 0
h 29 -23 0
h -22 3 0
h -4 -11 0
h -14 -16 0
1 4 0
h 1 -2 0
1 -29 0
1 -48 0
h -1 -4 11 0
1 -27 0
1 -28 0
h 22 1 0
h 42 7 -9 0
1 -46 0
h 21 9 0
h 23 -21 0
h -1 -22 0
h 28 16 0
h 27 -23 0
h -7 46 0
1 4 0
h 23 27 0
1 -42 0
h 11 4 0
